; Copyright (c) 2026 The RIINA Authors. All rights reserved.
; Copyright (c) 2026 The RIINA Authors.
; Auto-generated from 02_FORMAL/coq/domains/uiux/GestureSystem.v (23 assertions)
; Generated by scripts/generate-full-stack.py
; Module: GestureSystem

(set-logic ALL)
(set-option :produce-models true)

; recognized (matches Coq: Definition recognized)
(define-fun recognized ((ts TouchSequence) (g Gesture)) Prop
  true)

; single_tap_latency (matches Coq: Definition single_tap_latency)
(define-fun single_tap_latency () R 50)

; no_double_tap_expected (matches Coq: Definition no_double_tap_expected)
(define-fun no_double_tap_expected ((tap SingleTapEvent)) Prop
  true)

; response_time (matches Coq: Definition response_time)
(define-fun response_time ((tap SingleTapEvent)) R
  true)

; requires_coordination (matches Coq: Definition requires_coordination)
(define-fun requires_coordination ((gt GestureType)) Bool
  true)

; classify_touch (matches Coq: Definition classify_touch)
(define-fun classify_touch ((tc Int) (dur R)) TouchClassification
  true)

; gesture_disambiguation_unique (matches Coq: Theorem gesture_disambiguation_unique)
(assert (= true true)) ; gesture_disambiguation_unique [untranslatable]

; tap_latency_no_unnecessary_delay (matches Coq: Theorem tap_latency_no_unnecessary_delay)
(assert (= true true)) ; tap_latency_no_unnecessary_delay [untranslatable]

; swipe_velocity_matches_physics (matches Coq: Theorem swipe_velocity_matches_physics)
(assert (forall ((swipe SwipeGesture)) (= (scroll_velocity swipe) (finger_velocity swipe)))) ; swipe_velocity_matches_physics

; multi_touch_always_synchronized (matches Coq: Theorem multi_touch_always_synchronized)
(assert (forall ((mtg MultiTouchGesture)) (= (all_points_synchronized mtg) true))) ; multi_touch_always_synchronized

; 1 (matches Coq: Theorem 1)
(assert (= true true)) ; 1 [untranslatable]

; 2 (matches Coq: Theorem 2)
(assert (= true true)) ; 2 [untranslatable]

; 3 (matches Coq: Theorem 3)
(assert (= true true)) ; 3 [untranslatable]

; 4 (matches Coq: Theorem 4)
(assert (= true true)) ; 4 [untranslatable]

; 5 (matches Coq: Theorem 5)
(assert (= true true)) ; 5 [untranslatable]

; 6 (matches Coq: Theorem 6)
(assert (= true true)) ; 6 [untranslatable]

; 7 (matches Coq: Theorem 7)
(assert (= true true)) ; 7 [untranslatable]

; gesture_recognizer_always_classifies (matches Coq: Theorem gesture_recognizer_always_classifies)
(assert (= true true)) ; gesture_recognizer_always_classifies [untranslatable]

; 8 (matches Coq: Theorem 8)
(assert (= true true)) ; 8 [untranslatable]

; 9 (matches Coq: Theorem 9)
(assert (= true true)) ; 9 [untranslatable]

; multi_touch_sorted_tail (matches Coq: Theorem multi_touch_sorted_tail)
(assert (= true true)) ; multi_touch_sorted_tail [untranslatable]

; 10 (matches Coq: Theorem 10)
(assert (= true true)) ; 10 [untranslatable]

; 11 (matches Coq: Theorem 11)
(assert (= true true)) ; 11 [untranslatable]

; 12 (matches Coq: Theorem 12)
(assert (= true true)) ; 12 [untranslatable]

; 13 (matches Coq: Theorem 13)
(assert (= true true)) ; 13 [untranslatable]

; 14 (matches Coq: Theorem 14)
(assert (= true true)) ; 14 [untranslatable]

; 15 (matches Coq: Theorem 15)
(assert (= true true)) ; 15 [untranslatable]

; velocity_magnitude_non_negative (matches Coq: Theorem velocity_magnitude_non_negative)
(assert (= true true)) ; velocity_magnitude_non_negative [untranslatable]

; gesture_confidence_high (matches Coq: Theorem gesture_confidence_high)
(assert (= true true)) ; gesture_confidence_high [untranslatable]

; Verify all assertions are satisfiable
(check-sat)
(exit)
